# Objective value = 95603
x66 1
x67 0
x68 0
x69 0
x70 0
x71 1
x72 0
x73 0
x74 1
x75 1
x76 0
x77 0
x78 1
x79 1
x80 1
x81 0
x82 0
x83 1
x84 1
x85 1
x86 1
x87 0
x88 0
x89 1
x90 1
x91 1
x92 1
x93 1
x94 1
x95 1
x96 0
x97 0
x98 0
x99 0
x100 0
x101 0
x102 0
x103 0
x104 1
x105 1
x106 1
x107 1
x108 1
x109 1
x110 0
x111 1
x112 1
x113 0
x114 0
x115 0
x116 0
x117 0
x118 0
x119 1
x120 0
x121 0
x122 0
x123 1
x124 1
x125 1
x126 1
x127 1
x128 1
x129 0
x130 1
x131 0
x132 0
x133 0
x134 1
x135 1
x136 1
x137 1
x138 1
x139 1
x140 0
x141 1
x142 0
x143 1
x144 0
x145 0
x146 1
x147 1
x148 1
x149 1
x150 1
x151 1
x152 0
x153 1
x154 0
x155 1
x156 1
x157 0
x158 0
x159 1
x160 1
x161 1
x162 1
x163 1
x164 1
x165 0
x166 1
x167 0
x168 1
x169 1
x170 1
x171 1
x172 1
x173 0
x174 0
x175 0
x176 0
x177 0
x178 0
x179 1
x180 0
x181 1
x182 0
x183 0
x184 0
x185 0
x186 0
x187 0
x188 1
x189 1
x190 1
x191 1
x192 1
x193 1
x194 0
x195 1
x196 0
x197 1
x198 1
x199 1
x200 1
x201 0
x202 0
x203 0
x204 1
x205 1
x206 1
x207 1
x208 1
x209 1
x210 1
x211 0
x212 0
x213 0
x214 1
x215 0
x216 0
x217 0
x218 0
x219 1
x220 1
x221 1
x222 1
x223 0
x224 1
x225 0
x226 0
x227 0
x228 1
x229 1
x230 1
x231 1
x232 1
x233 1
x234 0
x235 1
x236 0
x237 1
x238 1
x239 1
x240 0
x241 1
x242 1
x243 1
x244 0
x245 1
x246 1
x247 0
x248 1
x249 1
x250 1
x251 0
x252 0
x253 1
x254 1
x255 0
x256 1
x257 1
x258 1
x259 1
x260 0
x261 0
x262 0
x263 1
x264 0
x265 1
x266 0
x267 1
x268 0
x269 0
x270 0
x271 0
x272 0
x273 1
x274 1
x275 1
x276 0
x277 1
x278 1
x279 1
x280 0
x281 1
x282 1
x283 1
x284 1
x285 0
x286 0
x287 0
x288 1
x289 1
x290 0
x291 1
x292 1
x293 1
x294 0
x295 1
x296 1
x297 1
x298 1
x299 0
x300 1
x301 0
x302 1
x303 1
x304 1
x305 0
x306 1
x307 1
x308 1
x309 0
x310 1
x311 1
x312 1
x313 1
x314 0
x315 1
x316 1
x317 0
x318 1
x319 1
x320 1
x321 0
x322 1
x323 1
x324 1
x325 0
x326 1
x327 1
x328 1
x329 1
x330 0
x331 1
x332 1
x333 1
x334 1
x335 0
x336 1
x337 0
x338 1
x339 0
x340 0
x341 0
x342 1
x343 0
x344 0
x345 0
x346 0
x347 1
x348 0
x349 0
x350 0
x351 0
x352 1
x353 1
x354 0
x355 0
x356 0
x357 1
x358 0
x359 0
x360 1
x361 0
x362 0
x363 0
x364 0
x365 1
x366 0
x367 0
x368 0
x369 0
x370 1
x371 0
x372 1
x373 1
x374 1
x375 1
x376 0
x377 1
x378 1
x379 0
x380 1
x381 1
x382 1
x383 1
x384 0
x385 1
x386 1
x387 1
x388 1
x389 0
x390 0
x391 0
x392 1
x393 1
x394 1
x395 1
x396 0
x397 1
x398 1
x399 0
x400 1
x401 1
x402 1
x403 1
x404 0
x405 1
x406 1
x407 1
x408 1
x409 0
x410 0
x411 1
x412 0
x413 1
x414 0
x415 1
x416 1
x417 0
x418 1
x419 1
x420 0
x421 1
x422 1
x423 1
x424 1
x425 0
x426 1
x427 1
x428 1
x429 1
x430 0
x431 0
x432 1
x433 1
x434 0
x435 0
x436 1
x437 1
x438 1
x439 1
x440 1
x441 0
x442 1
x443 1
x444 1
x445 0
x446 0
x447 1
x448 1
x449 1
x450 1
x451 1
x452 0
x453 1
x454 1
x455 1
x456 1
x457 1
x458 1
x459 0
x460 0
x461 0
x462 0
x463 0
x464 1
x465 0
x466 0
x467 1
x468 0
x469 0
x470 0
x471 0
x472 1
x473 1
x474 1
x475 0
x476 1
x477 0
x478 1
x479 1
x480 1
x481 1
x482 1
x483 0
x484 0
x485 0
x486 1
x487 1
x488 1
x489 0
x490 1
x491 1
x492 1
x493 0
x494 1
x495 1
x496 1
x497 0
x498 1
x499 1
x500 0
x501 0
x502 0
x503 0
x504 1
x505 1
x506 0
x507 0
x508 1
x509 0
x510 0
x511 0
x512 1
x513 0
x514 0
x515 0
x516 1
x517 1
x518 1
x519 1
x520 0
x521 1
x522 1
x523 1
x524 0
x525 1
x526 1
x527 1
x528 0
x529 1
x530 1
x531 0
x532 0
x533 1
x534 1
x535 1
x536 1
x537 0
x538 1
x539 1
x540 1
x541 0
x542 1
x543 1
x544 1
x545 0
x546 1
x547 1
x548 0
x549 1
x550 1
x551 0
x552 1
x553 0
x554 0
x555 0
x556 0
x557 0
x558 0
x559 1
x560 1
x561 0
x562 0
x563 1
x564 0
x565 0
x566 1
x567 0
x568 0
x569 0
x570 1
x571 0
x572 1
x573 1
x574 1
x575 1
x576 1
x577 1
x578 0
x579 1
x580 1
x581 1
x582 0
x583 1
x584 1
x585 0
x586 1
x587 1
x588 0
x589 0
x590 1
x591 0
x592 1
x593 1
x594 0
x595 1
x596 1
x597 1
x598 0
x599 1
x600 1
x601 1
x602 0
x603 1
x604 1
x605 0
x606 1
x607 1
x608 0
x609 1
x610 0
x611 1
x612 0
x613 1
x614 1
x615 1
x616 1
x617 1
x618 1
x619 0
x620 1
x621 1
x622 1
x623 0
x624 1
x625 1
x626 0
x627 1
x628 1
x629 0
x630 1
x631 1
x632 0
x633 1
x634 1
x635 1
x636 0
x637 1
x638 1
x639 0
x640 1
x641 1
x642 1
x643 1
x644 1
x645 0
x646 1
x647 1
x648 0
x649 1
x650 1
x651 0
x652 1
x653 1
x654 1
x655 0
x656 0
x657 1
x658 1
x659 0
x660 1
x661 1
x662 0
x663 1
x664 1
x665 1
x666 1
x667 1
x668 0
x669 1
x670 1
x671 0
x672 1
x673 1
x674 0
x675 1
x676 1
x677 1
x678 1
x679 0
x680 1
x681 1
x682 1
x683 0
x684 1
x685 1
x686 0
x687 1
x688 1
x689 1
x690 1
x691 1
x692 0
x693 1
x694 1
x695 0
x696 1
x697 1
x698 0
x699 1
x700 1
x701 1
x702 1
x703 1
x704 1
x705 0
x706 0
x707 0
x708 1
x709 0
x710 1
x711 1
x712 0
x713 0
x714 0
x715 0
x716 0
x717 1
x718 0
x719 0
x720 1
x721 0
x722 0
x723 1
x724 0
x725 0
x726 0
x727 0
x728 0
x729 0
x730 0
x731 0
x732 1
x733 1
x734 1
x735 1
x736 1
x737 0
x738 1
x739 1
x740 1
x741 1
x742 1
x743 0
x744 1
x745 0
x746 1
x747 0
x748 0
x749 1
x750 1
x751 1
x752 1
x753 1
x754 0
x755 1
x756 1
x757 1
x758 1
x759 1
x760 0
x761 1
x762 1
x763 1
x764 1
x765 0
x766 0
x767 1
x768 1
x769 1
x770 1
x771 1
x772 0
x773 1
x774 1
x775 0
x776 1
x777 1
x778 0
x779 1
x780 1
x781 1
x782 1
x783 1
x784 1
x785 1
x786 0
x787 0
x788 0
x789 1
x790 0
x791 1
x792 0
x793 0
x794 0
x795 0
x796 0
x797 1
x798 0
x799 0
x800 1
x801 0
x802 0
x803 0
x804 1
x805 1
x806 0
x807 0
x808 0
x809 1
x810 0
x811 0
x812 0
x813 1
x814 0
x815 0
x816 1
x817 0
x818 0
x819 1
x820 0
x821 0
x822 0
x823 0
x824 1
x825 0
x826 1
x827 1
x828 1
x829 1
x830 0
x831 0
x832 1
x833 1
x834 0
x835 1
x836 1
x837 0
x838 1
x839 1
x840 1
x841 1
x842 1
x843 1
x844 1
x845 0
x846 0
x847 0
x848 1
x849 1
x850 1
x851 1
x852 0
x853 1
x854 1
x855 1
x856 0
x857 1
x858 1
x859 0
x860 1
x861 1
x862 1
x863 1
x864 1
x865 1
x866 1
x867 0
x868 0
x869 1
x870 0
x871 1
x872 1
x873 1
x874 1
x875 0
x876 1
x877 1
x878 1
x879 0
x880 1
x881 1
x882 0
x883 1
x884 1
x885 1
x886 0
x887 1
x888 1
x889 1
x890 0
x891 0
x892 1
x893 1
x894 0
x895 1
x896 0
x897 1
x898 1
x899 1
x900 1
x901 1
x902 1
x903 0
x904 0
x905 1
x906 1
x907 0
x908 1
x909 1
x910 1
x911 1
x912 1
x913 1
x914 0
x915 0
x916 1
x917 1
x918 1
x919 0
x920 1
x921 0
x922 1
x923 1
x924 1
x925 1
x926 1
x927 1
x928 0
x929 1
x930 1
x931 0
x932 0
x933 1
x934 1
x935 1
x936 1
x937 1
x938 1
x939 0
x940 0
x941 1
x942 1
x943 1
x944 1
x945 1
x946 0
x947 1
x948 0
x949 0
x950 1
x951 0
x952 0
x953 0
x954 1
x955 0
x956 1
x957 0
x958 1
x959 0
x960 0
x961 0
x962 0
x963 0
x964 0
x965 1
x966 1
x967 0
x968 0
x969 0
x970 0
x971 0
x972 0
x973 1
x974 0
x975 1
x976 1
x977 1
x978 1
x979 1
x980 1
x981 0
x982 1
x983 1
x984 1
x985 0
x986 1
x987 1
x988 1
x989 1
x990 1
x991 1
x992 0
x993 0
x994 1
x995 1
x996 1
x997 1
x998 1
x999 0
x1000 0
x1001 1
x1002 1
x1003 1
x1004 0
x1005 1
x1006 1
x1007 0
x1008 1
x1009 1
x1010 1
x1011 1
x1012 1
x1013 1
x1014 1
x1015 1
x1016 0
x1017 1
x1018 1
x1019 1
x1020 0
x1021 0
x1022 1
x1023 1
x1024 1
x1025 1
x1026 1
x1027 0
x1028 1
x1029 1
x1030 1
x1031 0
x1032 0
x1033 1
x1034 0
x1035 0
x1036 1
x1037 0
x1038 0
x1039 0
x1040 0
x1041 1
x1042 0
x1043 0
x1044 0
x1045 1
x1046 0
x1047 0
x1048 0
x1049 1
x1050 1
x1051 0
x1052 0
x1053 0
x1054 0
x1055 0
x1056 1
x1057 0
x1058 0
x1059 0
x1060 1
x1061 1
x1062 1
x1063 0
x1064 1
x1065 1
x1066 0
x1067 1
x1068 1
x1069 1
x1070 0
x1071 1
x1072 1
x1073 1
x1074 1
x1075 0
x1076 1
x1077 1
x1078 1
x1079 0
x1080 0
x1081 1
x1082 1
x1083 1
x1084 1
x1085 1
x1086 0
x1087 1
x1088 1
x1089 0
x1090 0
x1091 1
x1092 1
x1093 1
x1094 0
x1095 1
x1096 0
x1097 0
x1098 1
x1099 1
x1100 1
x1101 1
x1102 1
x1103 1
x1104 1
x1105 1
x1106 0
x1107 1
x1108 1
x1109 1
x1110 0
x1111 0
x1112 1
x1113 1
x1114 1
x1115 1
x1116 1
x1117 0
x1118 1
x1119 1
x1120 0
x1121 1
x1 1
x2 1
x3 0
x4 0
x5 0
x6 0
x7 0
x8 0
x9 1
x10 0
x11 1
x12 0
x13 0
x14 0
x15 0
x16 1
x17 0
x18 0
x19 1
x20 0
x21 0
x22 0
x23 0
x24 1
x25 0
x26 0
x27 0
x28 0
x29 1
x30 1
x31 0
x32 0
x33 0
x34 0
x35 0
x36 1
x37 0
x38 0
x39 1
x40 0
x41 0
x42 1
x43 0
x44 0
x45 0
x46 0
x47 0
x48 0
x49 1
x50 0
x51 0
x52 0
x53 1
x54 1
x55 0
x56 0
x57 0
x58 0
x59 0
x60 1
x61 0
x62 0
x63 1
x64 0
x65 0
